SAT
Model:
1 -> false
2 -> false
3 -> false
4 -> false
5 -> true
6 -> false
7 -> false
8 -> true
9 -> false
10 -> false
11 -> true
12 -> true
13 -> false
14 -> false
15 -> true
16 -> false
17 -> true
18 -> true
19 -> false
20 -> false
21 -> false
22 -> true
23 -> false
24 -> true
25 -> true
26 -> true
27 -> true
28 -> true
29 -> false
30 -> false
31 -> false
32 -> true
33 -> true
34 -> false
35 -> true
36 -> true
37 -> false
38 -> true
39 -> true
40 -> false
41 -> true
42 -> false
43 -> false
44 -> true
45 -> true
46 -> true
47 -> true
48 -> false
49 -> true
50 -> true
